c instance by G2
c solution = 11001100111010011010110
c Known solution cost is 1114 
p cnf 23 30
w 4 90 72 79 61 12 70 4 78 2 7 62 51 79 35 96 97 1 50 81 79 1 3
7 -11 -18 0
19 12 -9 0
-9 -5 10 0
11 15 23 0
-19 -14 -2 0
22 -16 -6 0
-20 3 14 0
-5 1 23 0
3 2 7 0
3 -2 -23 0
3 -14 -1 0
-19 -18 -22 0
15 16 -19 0
-16 -15 -22 0
7 5 18 0
8 -4 -19 0
6 8 7 0
4 -22 13 0
-6 21 14 0
-19 -3 7 0
7 2 -4 0
9 -5 -11 0
22 -6 12 0
-21 18 -8 0
-12 -17 18 0
17 4 10 0
-10 3 -15 0
-1 17 23 0
-11 17 2 0
-1 -7 -17 0
